(declare-fun bvlambda_4_ ()Bool         )
(declare-fun bvlambda_24_ ()Bool         )
(declare-fun a92 () (Array (_ BitVec 1) (_ BitVec 12)))
(assert
(let (($e1 (_ bv0 1)))
(let (($e18 (_ bv476 12)))
(let (($e112 (store a92 bvlambda_4_ $e18)))
(let (($e226 (select $e112 true       )))
(let (($e228         $e226                     ))
(let (($e232 (store a92   $e1 $e226)))
(let (($e233 (select $e232 bvlambda_24_)))
(let (($e291         $e233               ))
(let (($e292         $e291               ))
(let (($e299 (bvult  $e233        $e233 )))
(let (($e300         $e299               ))
(let (($e301         $e300               ))
(let (($e302         $e301               ))
(let (($e318                bvlambda_4_       ))
                  (bvult $e226 $e233)
                                                                                                                                                                                                                                                                                                                                                                                                                                                                                                                                                                                                                                                                                                                                                                                                                                                                                                                                               )               ))))      ))                                                         ))   ) )                                                                                                                 )                                                             )                ))
